p edge 168 290
e 1 4 1
e 2 6 1
e 2 3 1
e 3 7 1
e 3 4 1
e 5 13 1
e 5 6 1
e 6 14 1
e 6 7 1
e 7 15 1
e 8 16 1
e 8 9 1
e 9 17 1
e 9 10 1
e 10 18 1
e 10 11 1
e 11 19 1
e 11 12 1
e 12 20 1
e 12 13 1
e 13 21 1
e 13 14 1
e 14 22 1
e 14 15 1
e 15 23 1
e 16 17 1
e 17 24 1
e 17 18 1
e 18 25 1
e 18 19 1
e 19 26 1
e 19 20 1
e 20 27 1
e 20 21 1
e 21 28 1
e 21 22 1
e 22 29 1
e 22 23 1
e 23 30 1
e 24 31 1
e 24 25 1
e 25 32 1
e 25 26 1
e 26 33 1
e 26 27 1
e 27 34 1
e 27 28 1
e 28 35 1
e 28 29 1
e 29 36 1
e 29 30 1
e 30 37 1
e 31 45 1
e 31 32 1
e 32 46 1
e 32 33 1
e 33 47 1
e 33 34 1
e 34 48 1
e 34 35 1
e 35 49 1
e 35 36 1
e 36 50 1
e 36 37 1
e 37 51 1
e 38 52 1
e 38 39 1
e 39 53 1
e 39 40 1
e 40 54 1
e 40 41 1
e 41 55 1
e 41 42 1
e 42 56 1
e 43 59 1
e 43 44 1
e 44 60 1
e 45 67 1
e 45 46 1
e 46 68 1
e 46 47 1
e 47 69 1
e 47 48 1
e 48 70 1
e 48 49 1
e 49 71 1
e 49 50 1
e 50 72 1
e 50 51 1
e 51 73 1
e 52 77 1
e 52 53 1
e 53 78 1
e 53 54 1
e 54 79 1
e 54 55 1
e 55 80 1
e 55 56 1
e 56 81 1
e 56 57 1
e 57 82 1
e 57 58 1
e 58 83 1
e 58 59 1
e 59 84 1
e 59 60 1
e 60 85 1
e 61 86 1
e 61 62 1
e 62 87 1
e 62 63 1
e 63 88 1
e 63 64 1
e 64 89 1
e 64 65 1
e 65 90 1
e 65 66 1
e 66 91 1
e 66 67 1
e 67 92 1
e 67 68 1
e 68 93 1
e 68 69 1
e 69 94 1
e 69 70 1
e 70 95 1
e 70 71 1
e 71 96 1
e 71 72 1
e 72 97 1
e 72 73 1
e 73 98 1
e 73 74 1
e 74 99 1
e 74 75 1
e 75 100 1
e 75 76 1
e 76 101 1
e 76 77 1
e 77 102 1
e 77 78 1
e 78 103 1
e 78 79 1
e 79 104 1
e 79 80 1
e 80 105 1
e 80 81 1
e 81 106 1
e 81 82 1
e 82 107 1
e 82 83 1
e 83 108 1
e 83 84 1
e 84 109 1
e 84 85 1
e 85 110 1
e 86 111 1
e 86 87 1
e 87 112 1
e 87 88 1
e 88 113 1
e 88 89 1
e 89 114 1
e 89 90 1
e 90 115 1
e 90 91 1
e 91 116 1
e 91 92 1
e 92 117 1
e 92 93 1
e 93 118 1
e 93 94 1
e 94 119 1
e 94 95 1
e 95 120 1
e 95 96 1
e 96 121 1
e 96 97 1
e 97 122 1
e 97 98 1
e 98 123 1
e 98 99 1
e 99 124 1
e 99 100 1
e 100 125 1
e 100 101 1
e 101 126 1
e 101 102 1
e 102 127 1
e 102 103 1
e 103 128 1
e 103 104 1
e 104 129 1
e 104 105 1
e 105 130 1
e 105 106 1
e 106 131 1
e 106 107 1
e 107 132 1
e 107 108 1
e 108 133 1
e 108 109 1
e 109 134 1
e 109 110 1
e 110 135 1
e 111 136 1
e 111 112 1
e 112 137 1
e 112 113 1
e 113 138 1
e 113 114 1
e 114 139 1
e 114 115 1
e 115 140 1
e 115 116 1
e 116 141 1
e 116 117 1
e 117 142 1
e 117 118 1
e 118 143 1
e 118 119 1
e 119 144 1
e 119 120 1
e 120 145 1
e 120 121 1
e 121 146 1
e 121 122 1
e 122 147 1
e 122 123 1
e 123 148 1
e 123 124 1
e 124 125 1
e 125 126 1
e 126 127 1
e 127 149 1
e 127 128 1
e 128 150 1
e 128 129 1
e 129 151 1
e 129 130 1
e 130 152 1
e 130 131 1
e 131 153 1
e 131 132 1
e 132 154 1
e 132 133 1
e 133 155 1
e 133 134 1
e 134 156 1
e 134 135 1
e 135 157 1
e 136 137 1
e 137 158 1
e 137 138 1
e 138 159 1
e 138 139 1
e 139 160 1
e 139 140 1
e 140 161 1
e 140 141 1
e 141 162 1
e 141 142 1
e 142 143 1
e 143 144 1
e 144 145 1
e 145 146 1
e 146 147 1
e 147 148 1
e 149 150 1
e 150 151 1
e 151 152 1
e 152 153 1
e 153 154 1
e 154 163 1
e 154 155 1
e 155 164 1
e 155 156 1
e 156 165 1
e 156 157 1
e 158 159 1
e 159 160 1
e 160 161 1
e 161 162 1
e 163 166 1
e 163 164 1
e 164 167 1
e 164 165 1
e 165 168 1
e 166 167 1
e 167 168 1